Fe Cl                                   
   1.00000000000000     
     6.1818200000000001    0.0000000000000000    0.0000000000000000
    -3.0909100000000000    5.3536099999999998    0.0000000000000000
     0.0000000000000000    0.0000000000000000   28.8529000000000018
   Fe   Cl
     2     6
Direct
  0.9999996072626968  0.9999996101431226  0.2260500244636033
  0.6666684173348241  0.3333323782387231  0.2264938527102305
  0.9681896542505143  0.6670524162232803  0.2739141357192349
  0.3329477798158552  0.3011372516309055  0.2739141037698516
  0.6988623772469406  0.0318096974453355  0.2739143064050914
  0.9664677530068715  0.3002798491174598  0.1785610775900577
  0.6997204390112869  0.6661959067875928  0.1785614429842087
  0.3338039720710109  0.0335328904135731  0.1785610563577147
 
  0.00000000E+00  0.00000000E+00  0.00000000E+00
  0.00000000E+00  0.00000000E+00  0.00000000E+00
  0.00000000E+00  0.00000000E+00  0.00000000E+00
  0.00000000E+00  0.00000000E+00  0.00000000E+00
  0.00000000E+00  0.00000000E+00  0.00000000E+00
  0.00000000E+00  0.00000000E+00  0.00000000E+00
  0.00000000E+00  0.00000000E+00  0.00000000E+00
  0.00000000E+00  0.00000000E+00  0.00000000E+00
