Fe Cl 
 1.0000000000000000
     6.1818200000000001    0.0000000000000000    0.0000000000000000
    -3.0909100000000000    5.3536099999999998    0.0000000000000000
     0.0000000000000000    0.0000000000000000   28.8529000000000018
  Fe  Cl
   2   6
Cartesian
  0.0000000000000000  0.0000000000000000  6.5279686250000006
  3.0909409090999995  1.7845188213000001  6.5418180169999998
  3.9227975173999998  3.5712861588000000  7.9028093099999994
  1.1275948770999997  1.6115972183000000  7.9028093099999994
  4.2223376054999999  0.1707266229000000  7.9028093099999994
  5.0459105749999997  1.6086527328000000  5.1482229470000007
  2.2656988482000009  3.5656113321999996  5.1482229470000007
  1.9610278494999998  0.1793994711000000  5.1482229470000007
