   PREC = Accurate
  EDIFF = 1E-5
  ENCUT = 520

    NSW = 300
 IBRION = 2

 ISMEAR = 0
  SIGMA = 0.05

   ISIF = 3
  ISPIN = 2
 MAGMOM = 6 6 0 0 0 0 0 0  

  LREAL = F
  LWAVE = F
 LCHARG = F

LDAU = .TRUE.       ! Activate DFT+U
LDAUTYPE = 2        ! Dudarev’s approach
LDAUL = 2  -1 
LDAUU = 4.5 0.0
LDAUJ = 0.9 0.0
