Fe Cl                                   
    1.000000000000000     
     6.1725250715569961    0.0000000000000000    0.0000000000000000
    -3.0862625309857150    5.3455602215245008    0.0000000000000000
     0.0000000000000000    0.0000000000000000   17.9729356081780267
   Fe   Cl
     2     6
Direct
  0.0000009147752635  0.9999993619518861  0.3625368813395693
  0.6666658634577729  0.3333338772333576  0.3628474309563017
  0.9702045509611842  0.6670463142812609  0.4392729336512659
  0.3329534432685973  0.3031585943086445  0.4392720193003455
  0.6968394647555380  0.0297983342389480  0.4392724343786355
  0.9696710999713019  0.3033784516289615  0.2860233431083825
  0.6966207171854221  0.6662967814259968  0.2860242454156602
  0.3337039866249129  0.0303282699309463  0.2860219638498262
 
  0.00000000E+00  0.00000000E+00  0.00000000E+00
  0.00000000E+00  0.00000000E+00  0.00000000E+00
  0.00000000E+00  0.00000000E+00  0.00000000E+00
  0.00000000E+00  0.00000000E+00  0.00000000E+00
  0.00000000E+00  0.00000000E+00  0.00000000E+00
  0.00000000E+00  0.00000000E+00  0.00000000E+00
  0.00000000E+00  0.00000000E+00  0.00000000E+00
  0.00000000E+00  0.00000000E+00  0.00000000E+00
