Fe Cl                                   
   1.00000000000000     
     6.1818200000000001    0.0000000000000000    0.0000000000000000
    -3.0909100000000000    5.3536099999999998    0.0000000000000000
     0.0000000000000000    0.0000000000000000   28.8529000000000018
   Fe   Cl
     2     6
Direct
  0.9999987958572487  0.0000007619650120  0.2260718435622148
  0.6666636754398191  0.3333367457220968  0.2264460705620530
  0.9730903769003107  0.6665459389052064  0.2740176731806121
  0.3334538037843560  0.3065437770889738  0.2740173760719831
  0.6934551895691842  0.0269100916883929  0.2740176416005018
  0.9727699306807547  0.3059875310932013  0.1784664377482404
  0.6940119083431509  0.6667841999269221  0.1784671232504204
  0.3332163194251760  0.0272309536101874  0.1784658340239671
 
  0.00000000E+00  0.00000000E+00  0.00000000E+00
  0.00000000E+00  0.00000000E+00  0.00000000E+00
  0.00000000E+00  0.00000000E+00  0.00000000E+00
  0.00000000E+00  0.00000000E+00  0.00000000E+00
  0.00000000E+00  0.00000000E+00  0.00000000E+00
  0.00000000E+00  0.00000000E+00  0.00000000E+00
  0.00000000E+00  0.00000000E+00  0.00000000E+00
  0.00000000E+00  0.00000000E+00  0.00000000E+00
