Fe Cl                                   
   1.00000000000000     
     6.1818200000000001    0.0000000000000000    0.0000000000000000
    -3.0909100000000000    5.3536099999999998    0.0000000000000000
     0.0000000000000000    0.0000000000000000   28.8529000000000018
   Fe   Cl
     2     6
Direct
  0.9999988211252375  0.0000021154558392  0.2262332506516797
  0.6666640861216194  0.3333349235100784  0.2263199742872793
  0.9723459203396276  0.6666559707897350  0.2734569196617067
  0.3333437483467103  0.3056899240636018  0.2734570599667163
  0.6943098055432336  0.0276557356613157  0.2734568464107515
  0.9720082227943621  0.3052812531045263  0.1790154353843941
  0.6947164057340011  0.6667273859944212  0.1790155920457779
  0.3332729899952087  0.0279926914204749  0.1790149215916875
 
  0.00000000E+00  0.00000000E+00  0.00000000E+00
  0.00000000E+00  0.00000000E+00  0.00000000E+00
  0.00000000E+00  0.00000000E+00  0.00000000E+00
  0.00000000E+00  0.00000000E+00  0.00000000E+00
  0.00000000E+00  0.00000000E+00  0.00000000E+00
  0.00000000E+00  0.00000000E+00  0.00000000E+00
  0.00000000E+00  0.00000000E+00  0.00000000E+00
  0.00000000E+00  0.00000000E+00  0.00000000E+00
