Fe Cl                                   
    1.000000000000000     
     6.1941293220383313    0.0000000000000000    0.0000000000000000
    -3.0970646562096076    5.3642700397350485    0.0000000000000000
     0.0000000000000000    0.0000000000000000   18.0358420845815424
   Fe   Cl
     2     6
Direct
  0.0000009147752635  0.9999993619518861  0.3626831185338202
  0.6666658634577729  0.3333338772333576  0.3626653913934516
  0.9681357140367078  0.6666382664023918  0.4386394384659333
  0.3333614911474665  0.3014978052630374  0.4386385241150130
  0.6985002538011450  0.0318671711634243  0.4386389391933030
  0.9681370179356015  0.3014518678784320  0.2866687724165765
  0.6985473009359516  0.6666892831408189  0.2866696747238542
  0.3333114849100909  0.0318623519666467  0.2866673931580202
 
  0.00000000E+00  0.00000000E+00  0.00000000E+00
  0.00000000E+00  0.00000000E+00  0.00000000E+00
  0.00000000E+00  0.00000000E+00  0.00000000E+00
  0.00000000E+00  0.00000000E+00  0.00000000E+00
  0.00000000E+00  0.00000000E+00  0.00000000E+00
  0.00000000E+00  0.00000000E+00  0.00000000E+00
  0.00000000E+00  0.00000000E+00  0.00000000E+00
  0.00000000E+00  0.00000000E+00  0.00000000E+00
