Fe Cl                                   
    1.000000000000000     
     6.1732170249266485    0.0000000000000000    0.0000000000000000
    -3.0866085076700047    5.3461594703513731    0.0000000000000000
     0.0000000000000000    0.0000000000000000   17.9749504130127526
   Fe   Cl
     2     6
Direct
  0.0000009147752635  0.9999993619518861  0.3619960358996537
  0.6666658634577729  0.3333338772333576  0.3634693998039415
  0.9718596873741765  0.6664915152809189  0.4398822391500062
  0.3335082422689393  0.3053685297219788  0.4398813247990859
  0.6946295293422038  0.0281431978259557  0.4398817398773759
  0.9717670505659176  0.3049459072065359  0.2853869964737339
  0.6950532616078479  0.6668252764430384  0.2853878987810117
  0.3331754916078716  0.0282323193363307  0.2853856172151777
 
  0.00000000E+00  0.00000000E+00  0.00000000E+00
  0.00000000E+00  0.00000000E+00  0.00000000E+00
  0.00000000E+00  0.00000000E+00  0.00000000E+00
  0.00000000E+00  0.00000000E+00  0.00000000E+00
  0.00000000E+00  0.00000000E+00  0.00000000E+00
  0.00000000E+00  0.00000000E+00  0.00000000E+00
  0.00000000E+00  0.00000000E+00  0.00000000E+00
  0.00000000E+00  0.00000000E+00  0.00000000E+00
