Fe Cl                                   
   1.00000000000000     
     6.1818200000000001    0.0000000000000000    0.0000000000000000
    -3.0909100000000000    5.3536099999999998    0.0000000000000000
     0.0000000000000000    0.0000000000000000   28.8529000000000018
   Fe   Cl
     2     6
Direct
  0.9999987806517818  0.0000011496445436  0.2261328080366539
  0.6666629834492730  0.3333370644790931  0.2263551036485659
  0.9729116360472426  0.6665831995947907  0.2741159496379086
  0.3334168332032556  0.3063280666935946  0.2741157093207242
  0.6936708589261831  0.0270891638917108  0.2741159277680070
  0.9725961498246702  0.3057964320211612  0.1783781406173620
  0.6942024320719509  0.6667998351933552  0.1783788766431256
  0.3332003258256427  0.0274050884817436  0.1783774843276456
 
  0.00000000E+00  0.00000000E+00  0.00000000E+00
  0.00000000E+00  0.00000000E+00  0.00000000E+00
  0.00000000E+00  0.00000000E+00  0.00000000E+00
  0.00000000E+00  0.00000000E+00  0.00000000E+00
  0.00000000E+00  0.00000000E+00  0.00000000E+00
  0.00000000E+00  0.00000000E+00  0.00000000E+00
  0.00000000E+00  0.00000000E+00  0.00000000E+00
  0.00000000E+00  0.00000000E+00  0.00000000E+00
