Fe Cl                                   
    1.000000000000000     
     6.1878817704545019    0.0000000000000000    0.0000000000000000
    -3.0939408804225441    5.3588595046880014    0.0000000000000000
     0.0000000000000000    0.0000000000000000   18.0176506894841992
   Fe   Cl
     2     6
Direct
  0.0000001499681332  0.0000005150902275  0.3617739657056494
  0.6666664397186146  0.3333331677483031  0.3637432769396156
  0.9726597886097078  0.6675277918583712  0.4391410106664159
  0.3324724198098124  0.3051333294864519  0.4391396940963824
  0.6948660944254095  0.0273403910277167  0.4391406746751682
  0.9715954198372804  0.3057947517085685  0.2861110571949357
  0.6942045836665253  0.6658052846855324  0.2861116382887496
  0.3341951449645379  0.0284047533948237  0.2861099344331123
 
  0.00000000E+00  0.00000000E+00  0.00000000E+00
  0.00000000E+00  0.00000000E+00  0.00000000E+00
  0.00000000E+00  0.00000000E+00  0.00000000E+00
  0.00000000E+00  0.00000000E+00  0.00000000E+00
  0.00000000E+00  0.00000000E+00  0.00000000E+00
  0.00000000E+00  0.00000000E+00  0.00000000E+00
  0.00000000E+00  0.00000000E+00  0.00000000E+00
  0.00000000E+00  0.00000000E+00  0.00000000E+00
