Fe Cl                                   
    1.000000000000000     
     6.0824163790179586    0.0000000000000000    0.0000000000000000
    -3.0412081847861634    5.2675238527991874    0.0000000000000000
     0.0000000000000000    0.0000000000000000   17.7105603711451316
   Fe   Cl
     2     6
Direct
  0.0000009147752635  0.9999993619518861  0.3627736273687597
  0.6666658634577729  0.3333338772333576  0.3625239523402780
  0.9781414161949458  0.6665418654983091  0.4403647539649185
  0.3334578920515491  0.3115999083253582  0.4403638396139982
  0.6883981507388246  0.0218614690051861  0.4403642546922882
  0.9782350097473986  0.3114440824041086  0.2849604336570076
  0.6885550864102753  0.6667950604269471  0.2849613359642854
  0.3332057076239632  0.0217643601548496  0.2849590543984513
 
  0.00000000E+00  0.00000000E+00  0.00000000E+00
  0.00000000E+00  0.00000000E+00  0.00000000E+00
  0.00000000E+00  0.00000000E+00  0.00000000E+00
  0.00000000E+00  0.00000000E+00  0.00000000E+00
  0.00000000E+00  0.00000000E+00  0.00000000E+00
  0.00000000E+00  0.00000000E+00  0.00000000E+00
  0.00000000E+00  0.00000000E+00  0.00000000E+00
  0.00000000E+00  0.00000000E+00  0.00000000E+00
