Fe Cl                                   
   1.00000000000000     
     6.1818200000000001    0.0000000000000000    0.0000000000000000
    -3.0909100000000000    5.3536099999999998    0.0000000000000000
     0.0000000000000000    0.0000000000000000   28.8529000000000018
   Fe   Cl
     2     6
Direct
  0.9999990788738299  0.0000023588275077  0.2262663069694859
  0.6666648634381133  0.3333337164776933  0.2263017387517173
  0.9725968489622786  0.6666341437715526  0.2736579519434030
  0.3333654390233925  0.3059630996377882  0.2736582123194481
  0.6940368413755904  0.0274052147650053  0.2736578028581567
  0.9722456886291138  0.3055827332908465  0.1788095138998892
  0.6944145762921805  0.6666637342910053  0.1788094679809406
  0.3333366634055012  0.0277549989385939  0.1788090052769521
 
  0.00000000E+00  0.00000000E+00  0.00000000E+00
  0.00000000E+00  0.00000000E+00  0.00000000E+00
  0.00000000E+00  0.00000000E+00  0.00000000E+00
  0.00000000E+00  0.00000000E+00  0.00000000E+00
  0.00000000E+00  0.00000000E+00  0.00000000E+00
  0.00000000E+00  0.00000000E+00  0.00000000E+00
  0.00000000E+00  0.00000000E+00  0.00000000E+00
  0.00000000E+00  0.00000000E+00  0.00000000E+00
