Fe Cl                                   
    1.000000000000000     
     6.0941075137611254    0.0000000000000000    0.0000000000000000
    -3.0470537521486687    5.2776486662431283    0.0000000000000000
     0.0000000000000000    0.0000000000000000   17.7446021951133730
   Fe   Cl
     2     6
Direct
  0.0000009147752635  0.9999993619518861  0.3627527139889855
  0.6666658634577729  0.3333338772333576  0.3625537563595826
  0.9776268845693832  0.6665488930237431  0.4398011248396144
  0.3334508645261151  0.3110783491743613  0.4398002104886941
  0.6889197098898211  0.0223760006307490  0.4398006255669840
  0.9777193709050754  0.3109394053194128  0.2855210992358014
  0.6890597634949709  0.6667840986693192  0.2855220015430792
  0.3332166693815907  0.0222799989971728  0.2855197199772451
 
  0.00000000E+00  0.00000000E+00  0.00000000E+00
  0.00000000E+00  0.00000000E+00  0.00000000E+00
  0.00000000E+00  0.00000000E+00  0.00000000E+00
  0.00000000E+00  0.00000000E+00  0.00000000E+00
  0.00000000E+00  0.00000000E+00  0.00000000E+00
  0.00000000E+00  0.00000000E+00  0.00000000E+00
  0.00000000E+00  0.00000000E+00  0.00000000E+00
  0.00000000E+00  0.00000000E+00  0.00000000E+00
