Fe Cl                                   
   1.00000000000000     
     6.1818200000000001    0.0000000000000000    0.0000000000000000
    -3.0909100000000000    5.3536099999999998    0.0000000000000000
     0.0000000000000000    0.0000000000000000   28.8529000000000018
   Fe   Cl
     2     6
Direct
  0.9999994989617559  0.9999999467574985  0.2260794237874404
  0.6666675338952394  0.3333330646267669  0.2264740109514513
  0.9684946608306656  0.6670211164544887  0.2740457188808995
  0.3329791869448444  0.3014735244008839  0.2740456680214661
  0.6985259888977318  0.0315049359966108  0.2740458732320964
  0.9669240875586418  0.3006538619740722  0.1784263239453858
  0.6993460895934901  0.6662768056794697  0.1784267634520671
  0.3337229533176314  0.0330767441102019  0.1784262177291861
 
  0.00000000E+00  0.00000000E+00  0.00000000E+00
  0.00000000E+00  0.00000000E+00  0.00000000E+00
  0.00000000E+00  0.00000000E+00  0.00000000E+00
  0.00000000E+00  0.00000000E+00  0.00000000E+00
  0.00000000E+00  0.00000000E+00  0.00000000E+00
  0.00000000E+00  0.00000000E+00  0.00000000E+00
  0.00000000E+00  0.00000000E+00  0.00000000E+00
  0.00000000E+00  0.00000000E+00  0.00000000E+00
